Instance name: /home/cuong/CLionProjects/uMV-FSTSP/50_dis_rand_ins/v21
Write arg val: 1

drone speed: 1 miles/minute
uav non-eligible customer: 11 
Printing tau:
0 22.3063 32.1461 25.4806 45.1336 26.6158 30.4662 35.0846 39.8659 58.9692 84.7096 0 
22.3063 0 45.273 47.7869 67.4399 48.9221 52.7725 48.0519 48.9139 81.2755 107.016 22.3063 
32.1461 45.273 0 6.88852 40.3843 43.6653 42.5199 67.2306 72.012 36.0026 61.7429 32.1461 
25.4806 47.7869 6.88852 0 33.4958 36.7767 35.6314 60.3421 65.1234 33.4886 59.229 25.4806 
45.1336 67.4399 40.3843 33.4958 0 18.5177 14.6674 26.8463 31.6276 13.8357 39.5761 45.1336 
26.6158 48.9221 43.6653 36.7767 18.5177 0 3.85033 23.5654 28.3467 32.3534 58.0938 26.6158 
30.4662 52.7725 42.5199 35.6314 14.6674 3.85033 0 24.7107 29.492 28.503 54.2434 30.4662 
35.0846 48.0519 67.2306 60.3421 26.8463 23.5654 24.7107 0 4.78132 33.2236 58.964 35.0846 
39.8659 48.9139 72.012 65.1234 31.6276 28.3467 29.492 4.78132 0 37.1292 58.102 39.8659 
58.9692 81.2755 36.0026 33.4886 13.8357 32.3534 28.503 33.2236 37.1292 0 25.7404 58.9692 
84.7096 107.016 61.7429 59.229 39.5761 58.0938 54.2434 58.964 58.102 25.7404 0 84.7096 
0 0 0 0 0 0 0 0 0 0 0 0 
Printing tau_prime:
0 5.93737 10.476 9.51349 12.1656 7.69022 8.53405 11.5393 12.7093 15.6534 22.4681 0 
5.93737 0 15.0283 14.5811 17.9603 13.2183 14.1706 15.4775 16.4109 21.5524 28.3959 5.93737 
10.476 15.0283 0 1.94443 12.2156 11.6189 11.4488 17.8424 19.1194 13.2927 18.2222 10.476 
9.51349 14.5811 1.94443 0 10.2979 9.75655 9.54024 16.0008 17.271 11.574 16.8753 9.51349 
12.1656 17.9603 12.2156 10.2979 0 4.98672 3.93029 8.781 9.71937 3.94813 10.838 12.1656 
7.69022 13.2183 11.6189 9.75655 4.98672 0 1.06519 6.25298 7.51656 8.88945 15.8146 7.69022 
8.53405 14.1706 11.4488 9.54024 3.93029 1.06519 0 6.67091 7.88691 7.82461 14.7515 8.53405 
11.5393 15.4775 17.8424 16.0008 8.781 6.25298 6.67091 0 1.28828 12.2958 18.467 11.5393 
12.7093 16.4109 19.1194 17.271 9.71937 7.51656 7.88691 1.28828 0 13.0602 18.9858 12.7093 
15.6534 21.5524 13.2927 11.574 3.94813 8.88945 7.82461 12.2958 13.0602 0 6.93887 15.6534 
22.4681 28.3959 18.2222 16.8753 10.838 15.8146 14.7515 18.467 18.9858 6.93887 0 22.4681 
0 0 0 0 0 0 0 0 0 0 0 0 
Version identifier: 22.1.1.0 | 2022-11-28 | 9160aff4d
CPXPARAM_MIP_Tolerances_Integrality              0
Tried aggregator 1 time.
MIP Presolve eliminated 1 rows and 12 columns.
MIP Presolve modified 20 coefficients.
Reduced MIP has 122 rows, 120 columns, and 510 nonzeros.
Reduced MIP has 110 binaries, 0 generals, 0 SOSs, and 0 indicators.
Presolve time = 0.00 sec. (0.27 ticks)
Found incumbent of value 438.935430 after 0.00 sec. (0.75 ticks)
Probing time = 0.00 sec. (0.26 ticks)
Cover probing fixed 0 vars, tightened 10 bounds.
Tried aggregator 1 time.
Detecting symmetries...
MIP Presolve eliminated 10 rows and 0 columns.
MIP Presolve modified 180 coefficients.
Reduced MIP has 112 rows, 120 columns, and 490 nonzeros.
Reduced MIP has 110 binaries, 0 generals, 0 SOSs, and 0 indicators.
Presolve time = 0.00 sec. (0.35 ticks)
Probing time = 0.00 sec. (0.26 ticks)
Clique table members: 67.
MIP emphasis: balance optimality and feasibility.
MIP search method: dynamic search.
Parallel mode: deterministic, using up to 20 threads.
Root relaxation solution time = 0.00 sec. (0.22 ticks)

        Nodes                                         Cuts/
   Node  Left     Objective  IInf  Best Integer    Best Bound    ItCnt     Gap

*     0+    0                          438.9354        0.0000           100.00%
      0     0      168.2061    24      438.9354      168.2061       27   61.68%
*     0+    0                          260.0033      168.2061            35.31%
      0     0      240.7897    20      260.0033      Cuts: 27       55    7.39%
      0     0      240.7897    17      260.0033      Cuts: 46       71    7.39%
      0     0      240.7897    14      260.0033      Cuts: 20       82    7.39%
      0     0      240.7897    16      260.0033      Cuts: 26       91    7.39%
*     0+    0                          251.7728      240.7897             4.36%
      0     0        cutoff            251.7728      251.7728       91    0.00%
Elapsed time = 0.05 sec. (7.74 ticks, tree = 0.01 MB, solutions = 3)

Clique cuts applied:  4
Implied bound cuts applied:  4
Mixed integer rounding cuts applied:  5
Zero-half cuts applied:  1
Multi commodity flow cuts applied:  15
Gomory fractional cuts applied:  2

Root node processing (before b&c):
  Real time             =    0.05 sec. (7.75 ticks)
Parallel b&c, 20 threads:
  Real time             =    0.00 sec. (0.00 ticks)
  Sync time (average)   =    0.00 sec.
  Wait time (average)   =    0.00 sec.
                          ------------
Total (root+branch&cut) =    0.05 sec. (7.75 ticks)

TSP solution for this instance: 0 3 2 10 9 4 6 5 7 8 1 11 
12
Warmstart X[1][0] == 1
Warmstart X[2][3] == 1
Warmstart X[3][2] == 1
Warmstart X[4][10] == 1
Warmstart X[5][9] == 1
Warmstart X[6][4] == 1
Warmstart X[7][6] == 1
Warmstart X[8][5] == 1
Warmstart X[9][7] == 1
Warmstart X[10][8] == 1
Warmstart X[11][1] == 1
---------------------------------------------
Calculate max stage gap for sortie.... 
Stage gap of 5 with smallest length = 19.2517 violated endurance constraint!
---------------------------------------------
Variable z[1][6] was set to 0.
Variable z[1][7] was set to 0.
Variable z[1][8] was set to 0.
Variable z[1][9] was set to 0.
Variable z[1][10] was set to 0.
Variable z[1][11] was set to 0.
Variable z[1][12] was set to 0.
Variable z[2][7] was set to 0.
Variable z[2][8] was set to 0.
Variable z[2][9] was set to 0.
Variable z[2][10] was set to 0.
Variable z[2][11] was set to 0.
Variable z[2][12] was set to 0.
Variable z[3][8] was set to 0.
Variable z[3][9] was set to 0.
Variable z[3][10] was set to 0.
Variable z[3][11] was set to 0.
Variable z[3][12] was set to 0.
Variable z[4][9] was set to 0.
Variable z[4][10] was set to 0.
Variable z[4][11] was set to 0.
Variable z[4][12] was set to 0.
Variable z[5][10] was set to 0.
Variable z[5][11] was set to 0.
Variable z[5][12] was set to 0.
Variable z[6][11] was set to 0.
Variable z[6][12] was set to 0.
Variable z[7][12] was set to 0.
Num constraint added = 5940
Warning:  Output names have been modified due to duplicate names or characters invalid in LP format.
Version identifier: 22.1.1.0 | 2022-11-28 | 9160aff4d
CPXPARAM_TimeLimit                               200
CPXPARAM_MIP_Tolerances_Integrality              0
1 of 1 MIP starts provided solutions.
MIP start 'm1' defined initial solution with objective 251.7728.
Tried aggregator 2 times.
MIP Presolve eliminated 6821 rows and 1752 columns.
MIP Presolve modified 2557 coefficients.
Aggregator did 32 substitutions.
Reduced MIP has 1514 rows, 2992 columns, and 58907 nonzeros.
Reduced MIP has 2971 binaries, 0 generals, 0 SOSs, and 0 indicators.
Presolve time = 0.07 sec. (209.22 ticks)
Probing fixed 235 vars, tightened 0 bounds.
Probing changed sense of 4 constraints.
Probing time = 0.04 sec. (104.32 ticks)
Tried aggregator 2 times.
Detecting symmetries...
MIP Presolve eliminated 47 rows and 236 columns.
MIP Presolve modified 106 coefficients.
Aggregator did 16 substitutions.
Reduced MIP has 1451 rows, 2740 columns, and 53192 nonzeros.
Reduced MIP has 2719 binaries, 0 generals, 0 SOSs, and 0 indicators.
Presolve time = 0.05 sec. (97.56 ticks)
Probing time = 0.00 sec. (5.54 ticks)
Clique table members: 9469.
MIP emphasis: balance optimality and feasibility.
MIP search method: dynamic search.
Parallel mode: deterministic, using up to 20 threads.
Root relaxation solution time = 0.14 sec. (309.78 ticks)

        Nodes                                         Cuts/
   Node  Left     Objective  IInf  Best Integer    Best Bound    ItCnt     Gap

*     0+    0                          251.7728        0.0000           100.00%
      0     0      133.1370   205      251.7728      133.1370       29   47.12%
*     0+    0                          210.6078      133.1370            36.78%
      0     0      147.0872   230      210.6078      Cuts: 51     4483   30.16%
      0     0      148.4336   301      210.6078      Cuts: 33     8671   29.52%
      0     0      148.7649   334      210.6078      Cuts: 21     9453   29.36%
      0     0      148.7658   329      210.6078       Cuts: 2     9481   29.36%
      0     0      149.2456   320      210.6078   ZeroHalf: 8     9987   29.14%
Detecting symmetries...
      0     0      149.6562   365      210.6078   ZeroHalf: 8    10920   28.94%
      0     0      149.9730   328      210.6078      Cuts: 10    11458   28.79%
      0     0      150.6224   380      210.6078       Cuts: 7    12738   28.48%
      0     0      151.4135   371      210.6078      Cuts: 10    13241   28.11%
      0     0      151.4933   386      210.6078       Cuts: 6    13517   28.07%
      0     0      151.7536   364      210.6078   ZeroHalf: 2    13890   27.94%
      0     0      152.1613   403      210.6078       Cuts: 4    15131   27.75%
      0     0      152.3172   361      210.6078       Cuts: 5    15592   27.68%
      0     0      152.4249   369      210.6078       Cuts: 6    16264   27.63%
*     0+    0                          194.2324      152.4249            21.52%
      0     0      152.5861   408      194.2324       Cuts: 4    16857   21.44%
      0     0      152.5861   408      194.2324       Cuts: 3    16913   21.44%
*     0+    0                          193.9072      152.5861            21.31%
Detecting symmetries...
      0     2      152.5861   407      193.9072      152.5861    16919   21.31%
Elapsed time = 2.85 sec. (5596.71 ticks, tree = 0.02 MB, solutions = 4)
      3     1        cutoff            193.9072      152.9296    19069   21.13%
     11     6      170.7436   119      193.9072      154.1898    22867   20.48%
    159    11      188.6355   127      193.9072      156.1250    40732   19.48%
    350    12      178.1786   110      193.9072      156.1250    60253   19.48%
*   383+   12                          188.8793      158.1842            16.25%
    615    23      184.3939    37      188.8793      160.1253    90681   15.22%
    891    65        cutoff            188.8793      161.4455   138524   14.52%
   1370    26    infeasible            188.8793      164.2909   184511   13.02%
   1524    16      182.1804    84      188.8793      164.6976   201626   12.80%
   1554    14      177.1991   166      188.8793      165.4371   204325   12.41%
   1590     7      182.3402    73      188.8793      166.7603   222061   11.71%
Elapsed time = 5.15 sec. (8791.88 ticks, tree = 0.03 MB, solutions = 5)
   1685     5        cutoff            188.8793      169.4063   233922   10.31%

GUB cover cuts applied:  10
Clique cuts applied:  3
Cover cuts applied:  31
Implied bound cuts applied:  48
Flow cuts applied:  1
Mixed integer rounding cuts applied:  1
Zero-half cuts applied:  37
Lift and project cuts applied:  1
Gomory fractional cuts applied:  2

Root node processing (before b&c):
  Real time             =    2.72 sec. (5445.43 ticks)
Parallel b&c, 20 threads:
  Real time             =    3.25 sec. (5214.36 ticks)
  Sync time (average)   =    2.22 sec.
  Wait time (average)   =    0.00 sec.
                          ------------
Total (root+branch&cut) =    5.97 sec. (10659.79 ticks)
Feasible solution found!
Truck nodes:
Stage 1 at customer 0 with arrival time is: 0
Stage 1 at customer 0 with departure time is: 0
Stage 2 at customer 5 with arrival time is: 26.6158
Stage 2 at customer 5 with departure time is: 27.6158
Stage 3 at customer 6 with arrival time is: 31.4661
Stage 3 at customer 6 with departure time is: 42.5397
Stage 4 at customer 4 with arrival time is: 57.2071
Stage 4 at customer 4 with departure time is: 62.146
Stage 5 at customer 9 with arrival time is: 75.9817
Stage 5 at customer 9 with departure time is: 80.9228
Stage 6 at customer 3 with arrival time is: 114.411
Stage 6 at customer 3 with departure time is: 114.411
Stage 7 at customer 2 with arrival time is: 121.3
Stage 7 at customer 2 with departure time is: 121.3
Stage 8 at customer 1 with arrival time is: 166.573
Stage 8 at customer 1 with departure time is: 166.573
Stage 9 at customer 11 with arrival time is: 188.879
Stage 9 at customer 11 with departure time is: 188.879
Truck arcs:
Arc 1 connecting 0 and 5 with cost 26.6158 
Arc 2 connecting 5 and 6 with cost 3.85033 
Arc 3 connecting 6 and 4 with cost 14.6674 
Arc 4 connecting 4 and 9 with cost 13.8357 
Arc 5 connecting 9 and 3 with cost 33.4886 
Arc 6 connecting 3 and 2 with cost 6.88852 
Arc 7 connecting 2 and 1 with cost 45.273 
Arc 8 connecting 1 and 11 with cost 22.3063 
Customer 7 served by drone.
Drone fly from 5 at stage 2 to serve 7 and then fly back to 6 at stage 3. 
Truck arcs during this sortie: 5--->6
Truck travel time from stage 2 to 3 is: 3.85033
Total drone travel time: 12.9239
Drone arrival time: 40.5397
Truck arrival time: 31.4661
Truck departure time = max(d/a, t/a) plus (sl/sr): 42.5397
Customer 8 served by drone.
Drone fly from 6 at stage 3 to serve 8 and then fly back to 4 at stage 4. 
Truck arcs during this sortie: 6--->4
Truck travel time from stage 3 to 4 is: 14.6674
Total drone travel time: 17.6063
Drone arrival time: 60.146
Truck arrival time: 57.2071
Truck departure time = max(d/a, t/a) plus (sl/sr): 62.146
Customer 10 served by drone.
Drone fly from 4 at stage 4 to serve 10 and then fly back to 9 at stage 5. 
Truck arcs during this sortie: 4--->9
Truck travel time from stage 4 to 5 is: 13.8357
Total drone travel time: 17.7769
Drone arrival time: 79.9228
Truck arrival time: 75.9817
Truck departure time = max(d/a, t/a) plus (sl/sr): 80.9228
Done!
-------------------------Re-calculated objective-----------------------
188.879
------------------------------------------------------------------------
Solve time: 5.976
OBJECTIVE VALUE: 188.879, NUMBER OF SORTIES: 3.
Number of revisit: 0
In write mode
